p cnf 20 20
2 4 -7 0
11 3 20 0
-13 11 7 0
-20 -6 -18 0
-20 -12 16 0
10 15 -5 0
-7 11 6 0
-1 -17 -3 0
-3 17 8 0
12 11 -17 0
4 -1 -17 0
-8 12 -13 0
-9 3 -13 0
-10 -1 20 0
-5 6 8 0
-11 -9 3 0
-18 -17 15 0
19 17 -2 0
7 4 2 0
-20 4 6 0
